Route #1: 4 45 27
Route #2: 34 52 46
Route #3: 8 35 19 54 13
Route #4: 7 53 14
Route #5: 11 38
Route #6: 10 31 25
Route #7: 50 18 24 49
Route #8: 15 20 37 36
Route #9: 21 28 22
Route #10: 43 42 41 23 16
Route #11: 5 47 48
Route #12: 29 30 2
Route #13: 1 33 6
Route #14: 51 3 44 32
Route #15: 9 39 26
Route #16: 17 40 12
Cost 968